s td 19 4 20
b 1 3 7
b 2 1 4
b 3 1 7 14
b 4 9 14
b 5 10 19
b 6 7 16 18
b 7 6 17
b 8 6 15
b 9 13 15
b 10 5 13
b 11 5 7 8
b 12 5 11 19
b 13 2 5 12
b 14 2 7 14
b 15 2 5 7 18
b 16 5 7 18
b 17 5 18 19
b 18 19
b 19 20
1 16
1 19
2 3
3 14
4 14
5 18
6 16
7 8
8 9
9 10
10 17
11 16
12 17
13 15
14 15
15 16
16 17
17 18
